CUST NO.,XCOORD.,YCOORD.,updated_SERVICE_TIME,DEMAND,TW_START,TW_END
3,55,45.0,8,1.8,0.0,138.0
6,25,30.0,8,0.5,0.0,138.0
7,20,50.0,8,5.0,0.0,138.0
8,10,43.0,8,1.7,0.0,138.0
10,30,60.0,8,1.1,92.0,172.5
11,20,65.0,8,0.7,0.0,138.0
14,15,10.0,8,1.5,0.0,138.0
17,5,30.0,8,0.1,149.5,230.0
19,15,60.0,8,6.4,0.0,138.0
20,45,65.0,8,1.0,92.0,172.5
21,45,20.0,8,0.7,0.0,138.0
22,45,10.0,8,1.8,0.0,138.0
23,55,5.0,8,1.5,0.0,138.0
25,65,20.0,8,0.4,149.5,230.0
26,35,35.0,0,0.0,0.0,0.0
capacity,200,,0,0.0,,
